&control
  calculation='scf'
  prefix='mos2'
  outdir='./tmp/'
  pseudo_dir = './pseudo/',
/
&system
  ibrav=4, celldm(1)=5.978, celldm(3)=3.09, nat=3, ntyp=2,
  ecutwfc=60.0
/
&electrons
  conv_thr = 1.0d-8
/
ATOMIC_SPECIES
 Mo 95.94 Mo_.UPF
 S  32.06 S_.UPF
ATOMIC_POSITIONS (angstrom)
 Mo 0.000 0.000 0.000
 S  1.819 1.050 1.565
 S -1.819 -1.050 -1.565
K_POINTS automatic
 12 12 1 0 0 0
